40299
0 0 1 0 1 1 1 1 1 0 1 1 0 1 0 0 1 0 1 1 0 0 0 0 1 1 1 1 1 0 
18 19 2 27 2 6 2 27 18 28 4 28 13 13 28 18 13 10 27 27 18 16 5 24 10 18 27 19 4 2 19 19 4 16 27 6 8 8 24 16 18 8 6 4 8 19 13 2 19 10 24 16 24 16 8 6 11 8 18 7 4 2 7 8 13 11 5 19 28 25 18 6 19 8 5 13 10 5 8 16 10 5 26 25 4 13 6 5 27 7 28 6 25 25 2 13 11 6 2 28 28 16 25 18 4 24 4 24 27 13 19 4 27 6 11 8 28 7 28 8 26 11 28 19 26 16 2 11 26 28 28 24 25 10 5 8 13 13 28 10 11 27 11 11 25 5 24 16 27 25 24 10 10 28 8 11 2 16 13 13 13 27 10 24 5 18 5 4 8 2 5 10 19 19 26 2 27 26 4 10 5 16 16 6 11 26 11 13 24 16 2 16 6 4 7 6 7 16 26 6 
